<?xml version = "1.0" encoding="UTF-8" standalone="yes"?>
<CPLEXSolution version="1.2">
 <header
   problemName="/Users/livingston/IdeaProjects/simccs-lanl/Datasets/SoutheastUS/Scenarios/timeScenario/Results/time30092021-16130014/time.mps"
   solutionName="incumbent"
   solutionIndex="-1"
   objectiveValue="1299.8704845499999"
   solutionTypeValue="3"
   solutionTypeString="primal"
   solutionStatusValue="102"
   solutionStatusString="integer optimal, tolerance"
   solutionMethodString="mip"
   primalFeasible="1"
   dualFeasible="0"
   MIPNodes="0"
   MIPIterations="35"
   writeLevel="1"/>
 <quality
   epInt="1.0000000000000001e-05"
   epRHS="9.9999999999999995e-07"
   maxIntInfeas="0"
   maxPrimalInfeas="8.8817841970012523e-16"
   maxX="30"
   maxSlack="10.600000000000001"/>
 <linearConstraints>
  <constraint name="A87" index="0" slack="0"/>
  <constraint name="B20" index="1" slack="1"/>
  <constraint name="A88" index="2" slack="0"/>
  <constraint name="B21" index="3" slack="1"/>
  <constraint name="A89" index="4" slack="4.4096299999999991"/>
  <constraint name="B22" index="5" slack="0"/>
  <constraint name="B23" index="6" slack="0"/>
  <constraint name="B24" index="7" slack="1"/>
  <constraint name="A1" index="8" slack="4.4096299999999991"/>
  <constraint name="A2" index="9" slack="-4.6350000000000007"/>
  <constraint name="A3" index="10" slack="0"/>
  <constraint name="A4" index="11" slack="0"/>
  <constraint name="A5" index="12" slack="0"/>
  <constraint name="A6" index="13" slack="0"/>
  <constraint name="A7" index="14" slack="0"/>
  <constraint name="A8" index="15" slack="0"/>
  <constraint name="A9" index="16" slack="7.6796300000000004"/>
  <constraint name="A90" index="17" slack="-4.6350000000000007"/>
  <constraint name="A91" index="18" slack="0"/>
  <constraint name="A92" index="19" slack="0"/>
  <constraint name="A93" index="20" slack="0"/>
  <constraint name="A94" index="21" slack="0"/>
  <constraint name="A95" index="22" slack="0"/>
  <constraint name="A96" index="23" slack="0"/>
  <constraint name="A10" index="24" slack="-1.3649999999999993"/>
  <constraint name="A11" index="25" slack="0"/>
  <constraint name="A12" index="26" slack="0"/>
  <constraint name="A13" index="27" slack="0"/>
  <constraint name="A14" index="28" slack="0"/>
  <constraint name="A15" index="29" slack="0"/>
  <constraint name="A16" index="30" slack="0"/>
  <constraint name="A17" index="31" slack="0"/>
  <constraint name="A18" index="32" slack="0"/>
  <constraint name="A19" index="33" slack="0"/>
  <constraint name="B1" index="34" slack="0"/>
  <constraint name="B2" index="35" slack="1"/>
  <constraint name="B3" index="36" slack="0"/>
  <constraint name="B4" index="37" slack="1"/>
  <constraint name="B5" index="38" slack="1"/>
  <constraint name="B6" index="39" slack="1"/>
  <constraint name="B7" index="40" slack="1"/>
  <constraint name="B8" index="41" slack="1"/>
  <constraint name="B9" index="42" slack="1"/>
  <constraint name="A20" index="43" slack="0"/>
  <constraint name="A21" index="44" slack="0"/>
  <constraint name="A22" index="45" slack="0"/>
  <constraint name="A23" index="46" slack="0"/>
  <constraint name="A24" index="47" slack="0"/>
  <constraint name="A25" index="48" slack="0"/>
  <constraint name="A26" index="49" slack="0"/>
  <constraint name="A27" index="50" slack="0"/>
  <constraint name="A28" index="51" slack="0"/>
  <constraint name="A29" index="52" slack="0"/>
  <constraint name="C1" index="53" slack="0"/>
  <constraint name="C2" index="54" slack="0"/>
  <constraint name="C3" index="55" slack="0"/>
  <constraint name="C4" index="56" slack="0"/>
  <constraint name="C5" index="57" slack="0"/>
  <constraint name="C6" index="58" slack="0"/>
  <constraint name="C7" index="59" slack="0"/>
  <constraint name="C8" index="60" slack="0"/>
  <constraint name="C9" index="61" slack="0"/>
  <constraint name="A30" index="62" slack="0"/>
  <constraint name="A31" index="63" slack="0"/>
  <constraint name="A32" index="64" slack="0"/>
  <constraint name="A33" index="65" slack="0"/>
  <constraint name="A34" index="66" slack="0"/>
  <constraint name="A35" index="67" slack="0"/>
  <constraint name="A36" index="68" slack="0"/>
  <constraint name="A37" index="69" slack="0"/>
  <constraint name="A38" index="70" slack="0"/>
  <constraint name="A39" index="71" slack="0"/>
  <constraint name="D1" index="72" slack="8.8817841970012523e-16"/>
  <constraint name="D2" index="73" slack="-1.9110000000000005"/>
  <constraint name="A40" index="74" slack="0"/>
  <constraint name="A41" index="75" slack="0"/>
  <constraint name="A42" index="76" slack="0"/>
  <constraint name="A43" index="77" slack="0"/>
  <constraint name="A44" index="78" slack="0"/>
  <constraint name="A45" index="79" slack="4.4096299999999991"/>
  <constraint name="A46" index="80" slack="-4.6350000000000007"/>
  <constraint name="A47" index="81" slack="0"/>
  <constraint name="A48" index="82" slack="0"/>
  <constraint name="A49" index="83" slack="7.6796300000000004"/>
  <constraint name="E1" index="84" slack="0"/>
  <constraint name="E2" index="85" slack="0"/>
  <constraint name="A50" index="86" slack="-1.3649999999999993"/>
  <constraint name="A51" index="87" slack="0"/>
  <constraint name="A52" index="88" slack="0"/>
  <constraint name="A53" index="89" slack="0"/>
  <constraint name="A54" index="90" slack="0"/>
  <constraint name="A55" index="91" slack="0"/>
  <constraint name="A56" index="92" slack="0"/>
  <constraint name="A57" index="93" slack="0"/>
  <constraint name="C10" index="94" slack="0"/>
  <constraint name="A58" index="95" slack="0"/>
  <constraint name="A59" index="96" slack="0"/>
  <constraint name="F1" index="97" slack="0"/>
  <constraint name="F2" index="98" slack="-10.600000000000001"/>
  <constraint name="A60" index="99" slack="0"/>
  <constraint name="A61" index="100" slack="7.6796300000000004"/>
  <constraint name="A62" index="101" slack="-1.3649999999999993"/>
  <constraint name="A63" index="102" slack="0"/>
  <constraint name="A64" index="103" slack="0"/>
  <constraint name="A65" index="104" slack="0"/>
  <constraint name="A66" index="105" slack="0"/>
  <constraint name="A67" index="106" slack="0"/>
  <constraint name="A68" index="107" slack="0"/>
  <constraint name="A69" index="108" slack="0"/>
  <constraint name="G1" index="109" slack="0"/>
  <constraint name="A70" index="110" slack="0"/>
  <constraint name="A71" index="111" slack="0"/>
  <constraint name="A72" index="112" slack="0"/>
  <constraint name="A73" index="113" slack="0"/>
  <constraint name="A74" index="114" slack="0"/>
  <constraint name="A75" index="115" slack="0"/>
  <constraint name="A76" index="116" slack="0"/>
  <constraint name="A77" index="117" slack="0"/>
  <constraint name="B10" index="118" slack="1"/>
  <constraint name="A78" index="119" slack="0"/>
  <constraint name="B11" index="120" slack="1"/>
  <constraint name="A79" index="121" slack="0"/>
  <constraint name="B12" index="122" slack="0"/>
  <constraint name="B13" index="123" slack="0"/>
  <constraint name="B14" index="124" slack="1"/>
  <constraint name="B15" index="125" slack="1"/>
  <constraint name="B16" index="126" slack="0"/>
  <constraint name="B17" index="127" slack="1"/>
  <constraint name="B18" index="128" slack="1"/>
  <constraint name="H1" index="129" slack="0"/>
  <constraint name="B19" index="130" slack="1"/>
  <constraint name="H2" index="131" slack="0"/>
  <constraint name="H3" index="132" slack="0"/>
  <constraint name="A80" index="133" slack="0"/>
  <constraint name="A81" index="134" slack="0"/>
  <constraint name="A82" index="135" slack="0"/>
  <constraint name="A83" index="136" slack="0"/>
  <constraint name="A84" index="137" slack="0"/>
  <constraint name="A85" index="138" slack="4.4096299999999991"/>
  <constraint name="A86" index="139" slack="-4.6350000000000007"/>
 </linearConstraints>
 <variables>
  <variable name="y[6][0]" index="0" value="-0"/>
  <variable name="r[1]" index="1" value="1"/>
  <variable name="y[17][1]" index="2" value="-0"/>
  <variable name="y[9][1]" index="3" value="-0"/>
  <variable name="y[15][0]" index="4" value="1"/>
  <variable name="y[7][0]" index="5" value="-0"/>
  <variable name="y[22][0]" index="6" value="1"/>
  <variable name="y[5][0]" index="7" value="-0"/>
  <variable name="y[7][1]" index="8" value="-0"/>
  <variable name="y[16][1]" index="9" value="-0"/>
  <variable name="y[8][0]" index="10" value="-0"/>
  <variable name="y[14][0]" index="11" value="-0"/>
  <variable name="y[4][0]" index="12" value="-0"/>
  <variable name="y[23][0]" index="13" value="-0"/>
  <variable name="y[1][1]" index="14" value="-0"/>
  <variable name="y[12][0]" index="15" value="1"/>
  <variable name="s[1]" index="16" value="1"/>
  <variable name="r[0]" index="17" value="-0"/>
  <variable name="y[19][1]" index="18" value="-0"/>
  <variable name="w[1]" index="19" value="12"/>
  <variable name="y[3][0]" index="20" value="-0"/>
  <variable name="y[9][0]" index="21" value="-0"/>
  <variable name="y[11][0]" index="22" value="1"/>
  <variable name="y[22][1]" index="23" value="-0"/>
  <variable name="y[18][1]" index="24" value="-0"/>
  <variable name="y[13][0]" index="25" value="-0"/>
  <variable name="y[0][1]" index="26" value="-0"/>
  <variable name="y[10][1]" index="27" value="-0"/>
  <variable name="y[8][1]" index="28" value="-0"/>
  <variable name="y[2][0]" index="29" value="1"/>
  <variable name="y[23][1]" index="30" value="-0"/>
  <variable name="s[0]" index="31" value="1"/>
  <variable name="y[1][0]" index="32" value="-0"/>
  <variable name="y[12][1]" index="33" value="0"/>
  <variable name="y[19][0]" index="34" value="-0"/>
  <variable name="w[0]" index="35" value="-0"/>
  <variable name="y[11][1]" index="36" value="0"/>
  <variable name="y[20][1]" index="37" value="-0"/>
  <variable name="y[3][1]" index="38" value="-0"/>
  <variable name="y[0][0]" index="39" value="1"/>
  <variable name="y[13][1]" index="40" value="-0"/>
  <variable name="y[18][0]" index="41" value="-0"/>
  <variable name="y[2][1]" index="42" value="-0"/>
  <variable name="y[10][0]" index="43" value="-0"/>
  <variable name="y[21][1]" index="44" value="-0"/>
  <variable name="y[6][1]" index="45" value="-0"/>
  <variable name="y[14][1]" index="46" value="-0"/>
  <variable name="y[17][0]" index="47" value="-0"/>
  <variable name="y[15][1]" index="48" value="-0"/>
  <variable name="y[5][1]" index="49" value="-0"/>
  <variable name="y[20][0]" index="50" value="-0"/>
  <variable name="y[16][0]" index="51" value="-0"/>
  <variable name="y[21][0]" index="52" value="1"/>
  <variable name="y[4][1]" index="53" value="-0"/>
  <variable name="p[18][1]" index="54" value="0"/>
  <variable name="projectLength" index="55" value="30"/>
  <variable name="p[16][0]" index="56" value="0"/>
  <variable name="b[0]" index="57" value="0"/>
  <variable name="p[5][1]" index="58" value="0"/>
  <variable name="p[3][0]" index="59" value="0"/>
  <variable name="p[1][0]" index="60" value="0"/>
  <variable name="p[23][0]" index="61" value="0"/>
  <variable name="p[17][1]" index="62" value="0"/>
  <variable name="p[15][0]" index="63" value="1.3649999999999993"/>
  <variable name="p[4][1]" index="64" value="0"/>
  <variable name="p[14][0]" index="65" value="0"/>
  <variable name="p[2][0]" index="66" value="1.3649999999999993"/>
  <variable name="p[0][0]" index="67" value="4.6350000000000007"/>
  <variable name="p[7][1]" index="68" value="0"/>
  <variable name="p[18][0]" index="69" value="0"/>
  <variable name="p[16][1]" index="70" value="0"/>
  <variable name="p[9][0]" index="71" value="0"/>
  <variable name="p[20][1]" index="72" value="0"/>
  <variable name="p[22][0]" index="73" value="4.6350000000000007"/>
  <variable name="p[6][1]" index="74" value="0"/>
  <variable name="p[17][0]" index="75" value="0"/>
  <variable name="p[15][1]" index="76" value="0"/>
  <variable name="p[14][1]" index="77" value="0"/>
  <variable name="p[8][0]" index="78" value="0"/>
  <variable name="p[21][0]" index="79" value="4.6350000000000007"/>
  <variable name="p[11][0]" index="80" value="4.6350000000000007"/>
  <variable name="p[7][0]" index="81" value="0"/>
  <variable name="p[13][1]" index="82" value="0"/>
  <variable name="p[9][1]" index="83" value="0"/>
  <variable name="p[20][0]" index="84" value="0"/>
  <variable name="a[1]" index="85" value="1.3649999999999993"/>
  <variable name="p[22][1]" index="86" value="0"/>
  <variable name="p[6][0]" index="87" value="0"/>
  <variable name="p[12][1]" index="88" value="0"/>
  <variable name="p[8][1]" index="89" value="0"/>
  <variable name="crf" index="90" value="0.10000000000000001"/>
  <variable name="p[19][0]" index="91" value="0"/>
  <variable name="p[0][1]" index="92" value="0"/>
  <variable name="p[10][0]" index="93" value="0"/>
  <variable name="p[21][1]" index="94" value="0"/>
  <variable name="captureTarget" index="95" value="6"/>
  <variable name="p[11][1]" index="96" value="0"/>
  <variable name="b[1]" index="97" value="6"/>
  <variable name="p[13][0]" index="98" value="0"/>
  <variable name="a[0]" index="99" value="4.6350000000000007"/>
  <variable name="p[5][0]" index="100" value="0"/>
  <variable name="p[3][1]" index="101" value="0"/>
  <variable name="p[1][1]" index="102" value="0"/>
  <variable name="p[23][1]" index="103" value="0"/>
  <variable name="p[12][0]" index="104" value="1.3649999999999993"/>
  <variable name="p[19][1]" index="105" value="0"/>
  <variable name="p[10][1]" index="106" value="0"/>
  <variable name="p[2][1]" index="107" value="0"/>
  <variable name="p[4][0]" index="108" value="0"/>
 </variables>
 <objectiveValues>
  <objective index="0" name="OBJ" value="1299.8704845500001"/>
 </objectiveValues>
</CPLEXSolution>
